
******************************************************************************
This program contains Ipopt, a library for large-scale nonlinear optimization.
 Ipopt is released as open source code under the Eclipse Public License (EPL).
         For more information visit http://projects.coin-or.org/Ipopt
******************************************************************************

This is Ipopt version 3.12.6, running with linear solver ma57.

Number of nonzeros in equality constraint Jacobian...:        9
Number of nonzeros in inequality constraint Jacobian.:        0
Number of nonzeros in Lagrangian Hessian.............:        6

Total number of variables............................:        3
                     variables with only lower bounds:        1
                variables with lower and upper bounds:        0
                     variables with only upper bounds:        0
Total number of equality constraints.................:        3
Total number of inequality constraints...............:        0
        inequality constraints with only lower bounds:        0
   inequality constraints with lower and upper bounds:        0
        inequality constraints with only upper bounds:        0

iter    objective    inf_pr   inf_du lg(mu)  ||d||  lg(rg) alpha_du alpha_pr  ls
   0  0.0000000e+00 2.31e+01 1.00e+00  -1.0 0.00e+00    -  0.00e+00 0.00e+00   0
   1  0.0000000e+00 6.81e+00 1.52e+09  -1.0 1.39e+01  -2.0 9.91e-01 1.00e+00h  1
   2  0.0000000e+00 9.83e+01 7.26e+11  -1.0 1.89e+01    -  1.00e+00 1.00e+00h  1
   3  0.0000000e+00 1.21e+01 7.35e+11  -1.0 4.37e+02    -  1.00e+00 2.27e-01h  2
Warning: SOC step rejected due to evaluation error
   4  0.0000000e+00 1.96e+05 6.82e+17  -1.0 5.49e+04    -  2.75e-02 3.12e-02h  6
   5  0.0000000e+00 6.69e+03 2.41e+16  -1.0 1.78e+03    -  1.00e+00 1.00e+00h  1
   6  0.0000000e+00 5.89e+03 2.12e+16  -1.0 2.82e+00    -  1.00e+00 1.25e-01h  4
   7  0.0000000e+00 5.71e+03 2.05e+16  -1.0 1.42e+01    -  1.00e+00 3.12e-02h  6
   8  0.0000000e+00 5.66e+03 2.04e+16  -1.0 1.75e+01    -  1.00e+00 7.81e-03h  8
   9  0.0000000e+00 5.65e+03 2.03e+16  -1.0 1.83e+01    -  1.00e+00 1.95e-03h 10
iter    objective    inf_pr   inf_du lg(mu)  ||d||  lg(rg) alpha_du alpha_pr  ls
  10  0.0000000e+00 5.65e+03 2.03e+16  -1.0 1.86e+01    -  1.00e+00 9.77e-04h 11
  11  0.0000000e+00 1.41e+03 5.11e+15  -1.0 1.87e+01    -  1.00e+00 1.00e+00h  1
  12  0.0000000e+00 1.36e+02 4.67e+14  -1.0 5.98e+02    -  1.00e+00 5.06e-01h  1
  13  0.0000000e+00 1.33e+02 4.55e+14  -1.0 3.19e+04    -  1.00e+00 2.10e-03h  1
  14  0.0000000e+00 1.33e+02 4.55e+14  -1.0 2.50e+04    -  1.00e+00 2.09e-05h  1
  15r 0.0000000e+00 1.33e+02 1.00e+03   2.1 0.00e+00    -  0.00e+00 1.05e-07R  2
  16r 0.0000000e+00 4.92e+01 9.91e+02   2.1 5.23e+04    -  1.66e-02 1.85e-03f  1
  17r 0.0000000e+00 4.72e+01 9.95e+02   0.7 3.75e+02    -  2.05e-04 8.20e-03f  1
  18r 0.0000000e+00 2.57e+02 1.49e+04   0.7 1.64e+03    -  4.52e-01 2.07e-02f  1
  19r 0.0000000e+00 1.91e+02 1.24e+04   0.7 3.04e+02    -  3.65e-02 2.22e-01f  1
iter    objective    inf_pr   inf_du lg(mu)  ||d||  lg(rg) alpha_du alpha_pr  ls
  20r 0.0000000e+00 1.36e+02 1.06e+04   0.7 4.39e+02    -  1.00e+00 2.03e-01f  1
  21r 0.0000000e+00 5.86e+00 5.41e+03   0.7 6.65e+02    -  3.29e-01 2.32e-01h  3
  22r 0.0000000e+00 5.71e+00 4.67e+03   0.7 6.97e+00   4.0 1.39e-02 2.87e-02h  1
  23r 0.0000000e+00 5.96e+00 4.73e+03   0.7 6.13e+00   3.5 1.65e-02 1.73e-01h  1
  24r 0.0000000e+00 7.83e+00 9.57e+03   0.7 4.68e+00   3.0 4.52e-01 2.50e-01h  3
  25r 0.0000000e+00 7.79e+00 9.84e+03   0.7 3.55e+00   3.5 6.40e-01 1.25e-01h  4
  26r 0.0000000e+00 7.78e+00 9.79e+03   0.7 7.18e+00   3.0 1.00e+00 7.81e-03h  8
  27r 0.0000000e+00 7.74e+00 9.58e+03   0.7 2.85e+00   3.4 9.00e-01 6.25e-02h  5
  28r 0.0000000e+00 7.74e+00 9.65e+03   0.7 6.63e+01   2.9 9.97e-02 1.26e-03f  8
  29r 0.0000000e+00 7.74e+00 9.51e+03   0.7 2.63e+00   3.4 1.00e+00 6.25e-02h  5
iter    objective    inf_pr   inf_du lg(mu)  ||d||  lg(rg) alpha_du alpha_pr  ls
  30r 0.0000000e+00 7.75e+00 1.05e+04   0.7 2.39e+00   3.8 1.00e+00 1.25e-01h  4
  31r 0.0000000e+00 7.73e+00 1.05e+04   0.7 4.98e+00   3.3 1.00e+00 7.81e-03h  8
  32r 0.0000000e+00 7.69e+00 1.04e+04   0.7 1.89e+00   3.7 1.00e+00 6.25e-02h  5
  33r 0.0000000e+00 7.68e+00 1.04e+04   0.7 1.14e+01   3.3 3.91e-01 3.91e-03f  9
  34r 0.0000000e+00 2.58e+01 6.87e+03   0.7 2.13e+00   3.7 1.00e+00 1.00e+00w  1
  35r 0.0000000e+00 3.36e+03 1.81e+06   0.7 1.42e+01   4.1 1.99e-01 3.60e-01w  1
  36r 0.0000000e+00 3.35e+03 1.79e+06   0.7 2.28e+01   5.4 4.94e-03 2.41e-03w  1
  37r 0.0000000e+00 7.64e+00 1.02e+04   0.7 9.07e+00   5.9 1.00e+00 3.12e-02h  5
  38r 0.0000000e+00 7.60e+00 4.00e+05   0.7 1.69e+00   5.4 1.00e+00 2.16e-02h  1
  39r 0.0000000e+00 7.57e+00 1.03e+05   0.7 1.60e+00   4.9 1.00e+00 1.25e-01h  4
iter    objective    inf_pr   inf_du lg(mu)  ||d||  lg(rg) alpha_du alpha_pr  ls
  40r 0.0000000e+00 7.52e+00 3.04e+04   0.7 1.77e+00   4.4 1.00e+00 3.12e-02h  6
  41r 0.0000000e+00 7.45e+00 5.02e+04   0.7 1.23e+00   4.9 1.00e+00 6.25e-02h  5
  42r 0.0000000e+00 7.42e+00 3.30e+04   0.7 2.04e+00   4.4 1.00e+00 3.12e-02h  6
  43r 0.0000000e+00 7.35e+00 3.45e+04   0.7 1.19e+00   4.8 1.00e+00 6.25e-02h  5
  44r 0.0000000e+00 7.34e+00 3.46e+04   0.7 2.24e+00   4.3 9.84e-01 3.12e-02f  6
  45r 0.0000000e+00 7.27e+00 3.36e+04   0.7 1.11e+00   4.8 1.00e+00 6.25e-02h  5
  46r 0.0000000e+00 7.24e+00 3.40e+04   0.7 2.18e+00   4.3 8.19e-01 1.56e-02f  7
  47r 0.0000000e+00 7.18e+00 3.23e+04   0.7 9.99e-01   4.7 1.00e+00 6.49e-02h  1
  48r 0.0000000e+00 7.15e+00 3.21e+04   0.7 1.98e+00   4.2 6.89e-01 1.56e-02f  7
  49r 0.0000000e+00 7.08e+00 3.15e+04   0.7 8.87e-01   4.7 1.00e+00 6.25e-02h  5
iter    objective    inf_pr   inf_du lg(mu)  ||d||  lg(rg) alpha_du alpha_pr  ls
  50r 0.0000000e+00 7.06e+00 3.12e+04   0.7 1.63e+00   4.2 6.84e-01 3.12e-02f  6
  51r 0.0000000e+00 6.98e+00 3.00e+04   0.7 7.02e-01   4.6 1.00e+00 6.63e-02h  3
  52r 0.0000000e+00 7.00e+00 2.82e+04   0.7 1.11e+00   4.1 7.46e-01 6.25e-02f  5
  53r 0.0000000e+00 6.99e+00 2.81e+04   0.7 1.61e+01   3.7 1.93e-03 2.01e-03f  8
  54r 0.0000000e+00 6.94e+00 2.69e+04   0.7 9.70e-01   4.1 6.48e-01 6.25e-02f  5
  55r 0.0000000e+00 6.91e+00 2.67e+04   0.7 3.28e+00   3.6 2.89e-03 7.81e-03f  8
  56r 0.0000000e+00 6.83e+00 2.51e+04   0.7 8.09e-01   4.0 1.00e+00 8.36e-02f  2
  57r 0.0000000e+00 6.31e+01 1.00e+05   0.7 1.39e+00   3.6 3.78e-01 1.00e+00f  1
  58r 0.0000000e+00 2.64e+01 2.11e+04   0.7 2.53e+00   3.1 1.00e+00 1.00e+00f  1
  59r 0.0000000e+00 2.59e+01 2.09e+04   0.7 4.64e+02   2.6 2.91e-03 8.70e-04h  4
iter    objective    inf_pr   inf_du lg(mu)  ||d||  lg(rg) alpha_du alpha_pr  ls
  60r 0.0000000e+00 2.31e+01 3.34e+03   0.7 2.31e+01   3.0 1.33e-01 1.18e-01h  1
  61r 0.0000000e+00 2.22e+01 7.09e+04   0.7 1.38e+02   4.4 6.28e-02 4.97e-03h  1
  62r 0.0000000e+00 2.21e+01 6.89e+04   0.7 4.21e+00   5.7 4.75e-02 1.81e-03h  1
  63r 0.0000000e+00 2.21e+01 6.70e+05   0.7 1.73e+01   5.2 6.59e-02 1.99e-04h  1
  64r 0.0000000e+00 2.20e+01 8.93e+04   0.7 3.72e+01   4.7 8.36e-02 3.36e-03h  2
  65r 0.0000000e+00 2.20e+01 5.36e+05   0.7 2.75e+01   5.2 1.26e-02 2.08e-04h  1
  66r 0.0000000e+00 2.20e+01 2.68e+06   0.7 2.74e+01   5.6 4.83e-05 3.34e-02f  1
  67r 0.0000000e+00 2.20e+01 2.68e+06   0.7 1.34e+01   5.1 3.35e-04 3.68e-04h  1
  68r 0.0000000e+00 2.20e+01 2.56e+06   0.7 1.34e+01   4.6 7.35e-02 9.69e-02h  1
  69r 0.0000000e+00 2.20e+01 2.44e+06   0.7 1.21e+01   4.2 9.80e-02 1.08e-03h  1
iter    objective    inf_pr   inf_du lg(mu)  ||d||  lg(rg) alpha_du alpha_pr  ls
  70r 0.0000000e+00 2.20e+01 2.37e+06   0.7 1.67e+01   3.7 2.58e-01 1.56e-02h  1
  71r 0.0000000e+00 2.20e+01 2.00e+06   0.7 1.65e+01   3.2 9.00e-01 2.62e-01h  1
  72r 0.0000000e+00 2.20e+01 2.12e+06   0.7 1.21e+01   2.7 3.67e-01 3.68e-03h  1
  73r 0.0000000e+00 2.18e+01 4.69e+05   0.7 1.73e+01   2.2 4.80e-01 1.00e+00h  1
  74r 0.0000000e+00 2.16e+01 4.56e+03   0.7 2.01e+00   1.8 1.00e+00 1.00e+00f  1
  75r 0.0000000e+00 1.97e+01 2.78e+07   0.7 3.26e+04    -  1.00e+00 7.43e-04f  1
  76r 0.0000000e+00 9.13e+00 5.54e+06   0.7 6.75e+03    -  1.00e+00 3.71e-02f  1
  77r 0.0000000e+00 9.05e+00 6.10e+04   0.7 4.73e+00    -  9.91e-01 5.24e-01f  1
  78r 0.0000000e+00 9.03e+00 1.76e+03   0.7 2.42e-01    -  1.00e+00 1.00e+00f  1
  79r 0.0000000e+00 9.87e+00 4.18e+02   0.7 1.16e+01    -  1.00e+00 1.00e+00f  1
iter    objective    inf_pr   inf_du lg(mu)  ||d||  lg(rg) alpha_du alpha_pr  ls
  80r 0.0000000e+00 8.90e+00 3.57e+01   0.0 1.20e+01    -  1.00e+00 9.88e-01h  1
  81r 0.0000000e+00 9.00e+00 1.32e+03  -0.7 2.30e+01    -  7.11e-01 1.00e+00f  1
  82r 0.0000000e+00 9.27e+00 2.32e+03  -0.7 8.48e+01    -  1.39e-02 1.00e+00f  1
  83r 0.0000000e+00 9.92e+00 3.83e+02  -0.7 1.67e+02    -  1.00e+00 1.00e+00f  1
  84r 0.0000000e+00 8.46e+00 6.33e+01  -0.7 5.66e+00    -  1.00e+00 1.00e+00h  1
  85r 0.0000000e+00 8.49e+00 4.74e-01  -0.7 2.06e+00    -  1.00e+00 1.00e+00h  1
  86r 0.0000000e+00 8.49e+00 1.23e+00  -3.1 1.23e-01    -  1.00e+00 1.00e+00f  1
  87r 0.0000000e+00 1.01e+01 3.65e+02  -3.1 3.80e+02    -  7.48e-01 1.00e+00f  1
  88r 0.0000000e+00 9.88e+00 8.49e+00  -3.1 7.07e+02    -  1.00e+00 1.00e+00f  1
  89r 0.0000000e+00 8.07e+00 1.85e+00  -3.1 4.47e+02    -  1.00e+00 1.00e+00h  1
iter    objective    inf_pr   inf_du lg(mu)  ||d||  lg(rg) alpha_du alpha_pr  ls
  90r 0.0000000e+00 7.96e+00 2.01e-02  -3.1 1.45e+01    -  1.00e+00 1.00e+00h  1
  91r 0.0000000e+00 7.96e+00 1.79e-01  -4.7 2.52e-02    -  1.00e+00 1.00e+00h  1
  92r 0.0000000e+00 9.34e+00 1.40e+02  -4.7 1.16e+03    -  1.00e+00 1.00e+00f  1
  93r 0.0000000e+00 8.25e+00 2.21e+01  -4.7 1.20e+03    -  1.00e+00 1.00e+00h  1
  94r 0.0000000e+00 7.75e+00 1.07e+00  -4.7 1.68e+02    -  1.00e+00 1.00e+00h  1
  95r 0.0000000e+00 7.75e+00 3.90e-04  -4.7 6.97e-01    -  1.00e+00 1.00e+00h  1
  96r 0.0000000e+00 7.75e+00 6.80e-02  -7.0 7.85e-05    -  1.00e+00 1.00e+00h  1
  97r 0.0000000e+00 9.76e+00 1.36e+02  -7.0 3.01e+03    -  1.00e+00 1.00e+00f  1
  98r 0.0000000e+00 9.08e+00 2.18e+01  -7.0 4.96e+03    -  1.00e+00 1.00e+00f  1
  99r 0.0000000e+00 7.54e+00 4.09e+00  -7.0 2.08e+03    -  1.00e+00 1.00e+00h  1
iter    objective    inf_pr   inf_du lg(mu)  ||d||  lg(rg) alpha_du alpha_pr  ls
 100r 0.0000000e+00 7.54e+00 2.70e-03  -7.0 1.04e+01    -  1.00e+00 1.00e+00h  1
 101r 0.0000000e+00 7.54e+00 2.19e-09  -7.0 3.47e-03    -  1.00e+00 1.00e+00h  1
 102r 0.0000000e+00 7.54e+00 1.37e-02  -9.0 3.99e-07    -  1.00e+00 1.00e+00h  1
 103r 0.0000000e+00 9.53e+00 7.84e+01  -9.0 9.17e+03    -  1.00e+00 1.00e+00f  1
 104r 0.0000000e+00 8.50e+00 1.68e+01  -9.0 1.29e+04    -  1.00e+00 1.00e+00f  1
 105r 0.0000000e+00 7.40e+00 1.92e+00  -9.0 3.58e+03    -  1.00e+00 1.00e+00h  1
 106r 0.0000000e+00 7.41e+00 1.25e-03  -9.0 1.18e+01    -  1.00e+00 1.00e+00h  1

Number of Iterations....: 106

                                   (scaled)                 (unscaled)
Objective...............:   0.0000000000000000e+00    0.0000000000000000e+00
Dual infeasibility......:   3.8312190259410239e-03    3.8312190259410239e-03
Constraint violation....:   7.4113742161549681e+00    7.4113742161549681e+00
Complementarity.........:   9.0909090909090858e-10    9.0909090909090858e-10
Overall NLP error.......:   7.4113742161549681e+00    7.4113742161549681e+00


Number of objective function evaluations             = 319
Number of objective gradient evaluations             = 17
Number of equality constraint evaluations            = 326
Number of inequality constraint evaluations          = 0
Number of equality constraint Jacobian evaluations   = 109
Number of inequality constraint Jacobian evaluations = 0
Number of Lagrangian Hessian evaluations             = 107
Total CPU secs in IPOPT (w/o function evaluations)   =      0.043
Total CPU secs in NLP function evaluations           =      0.007

EXIT: Converged to a point of local infeasibility. Problem may be infeasible.
Note: The following floating-point exceptions are signalling: IEEE_INVALID_FLAG IEEE_OVERFLOW_FLAG

************************ CUTEst statistics ************************


 Package used            :  IPOPT
 Problem                 :  PFIT1     
 # variables             =               3
 # constraints           =               3
 # objective functions   =        0.3370000E+03
 # objective gradients   =        0.1800000E+02
 # objective Hessians    =        0.1070000E+03
 # Hessian-vector prdct  =        0.0000000E+00
 # constraints functions =        0.4370000E+03
 # constraints gradients =        0.1110000E+03
 # constraints Hessians  =        0.1070000E+03
 Exit code               =               2
 Final f                 =   0.0000000E+00
 Set up time             =            0.00 seconds
 Solve time              =            0.20 seconds


******************************************************************

System Time =       0.0500000007 s.
